1 -1 -2 0
1 -1 -3 0
1 4 5 0
1 4 6 0
1 -4 -7 0
1 -6 8 0
1 -6 -5 0
1 6 2 0
1 7 9 0
1 -7 1 0
1 7 10 0
1 7 11 0
1 -7 -12 0
1 -3 -13 0
1 3 -9 0
1 -3 -14 0
1 3 1 0
1 -3 -10 0
1 -3 4 0
1 -15 -13 0
1 15 -4 0
1 -2 -13 0
1 2 -16 0
1 2 -17 0
1 -12 14 0
1 12 -7 0
1 12 18 0
1 14 -19 0
1 -14 -20 0
1 14 -12 0
1 -11 -21 0
1 11 7 0
1 11 -20 0
1 -11 -22 0
1 9 8 0
1 -9 23 0
1 9 24 0
1 9 7 0
1 20 -25 0
1 20 9 0
1 20 -26 0
1 -5 -9 0
1 5 -14 0
1 5 -6 0
1 5 27 0
1 -5 26 0
1 19 8 0
1 19 -28 0
1 19 -11 0
1 19 -12 0
1 -8 -29 0
1 -8 13 0
1 -8 6 0
1 -8 -19 0
1 8 -4 0
1 26 21 0
1 -26 -30 0
1 25 5 0
1 -25 13 0
1 25 -22 0
1 -31 -32 0
1 -31 23 0
1 31 21 0
1 -32 -30 0
1 30 -25 0
1 30 -9 0
1 21 -9 0
1 21 31 0
1 -22 25 0
1 22 -33 0
1 -22 -31 0
1 -22 -26 0
1 22 11 0
1 -22 34 0
1 -23 -32 0
1 -23 9 0
1 23 33 0
1 -23 31 0
1 18 -35 0
1 36 -37 0
1 -36 -15 0
1 -36 -38 0
1 -36 2 0
1 39 24 0
1 39 38 0
1 39 35 0
1 -39 2 0
1 -24 -9 0
1 -24 -37 0
1 24 40 0
1 -24 -39 0
1 24 -2 0
1 41 24 0
1 35 -29 0
1 35 13 0
1 -35 -28 0
1 37 36 0
1 -37 38 0
1 37 18 0
1 38 -18 0
1 -10 42 0
1 -10 26 0
1 -13 42 0
1 -13 -19 0
1 13 10 0
1 -13 2 0
1 -13 -3 0
1 -28 -29 0
1 28 43 0
1 28 35 0
1 -28 44 0
1 29 45 0
1 -29 -8 0
1 29 -40 0
1 29 -43 0
1 -29 19 0
1 -29 46 0
1 42 -29 0
1 -42 46 0
1 -46 29 0
1 46 -27 0
1 46 10 0
1 46 34 0
1 -46 -47 0
1 -40 44 0
1 -44 -29 0
1 -44 -28 0
1 -44 10 0
1 27 45 0
1 27 46 0
1 -27 -17 0
1 47 42 0
1 -47 48 0
1 -47 -20 0
1 -47 -17 0
1 -33 45 0
1 33 -22 0
1 -34 42 0
1 34 33 0
1 -34 -22 0
1 43 47 0
1 -48 33 0
1 -48 28 0
1 17 48 0
1 -17 28 0
1 -17 -34 0
